# Objective value = 3.1447150033238974e-02
err 3.1447150033238974e-02
itr_1 24
itr_2 23
itr_3 22
itr_4 21
itr_5 20
itr_6 19
itr_7 18
itr_8 17
itr_9 16
itr_10 15
itr_11 14
itr_12 13
itr_13 12
itr_14 11
itr_15 10
itr_16 9
itr_17 8
itr_18 7
itr_19 6
itr_20 5
itr_21 4
itr_22 3
itr_23 2
itr_24 1
itr_25 0
probe0_1 8.9999999999999982e+00
probe0_2 7.9999999999999982e+00
probe0_3 6.9999999999999982e+00
probe0_4 5.9999999999999982e+00
probe0_5 4.9999999999999982e+00
probe0_6 3.9999999999999987e+00
probe0_7 2.9999999999999987e+00
probe0_8 1.9999999999999991e+00
probe0_9 9.9999999999999956e-01
probe0_10 0
probe_1 1.5927999999999997e+01
probe_2 1.4927999999999997e+01
probe_3 1.3927999999999997e+01
probe_4 1.2927999999999997e+01
probe_5 1.1927999999999997e+01
probe_6 1.0927999999999997e+01
probe_7 7.8569999999999993e+00
probe_8 3.9284999999999997e+00
probe_9 0
hash_1 205.429
hash_2 1.9834663010526410e+02
hash_3 1.8992381505263205e+02
hash_4 181.501
